0 5794003 
1 5779807 
2 5773929 
3 5766174 
4 5751711 
5 5750076 
6 5744377 
7 5743992 
8 5742562 
9 5738643 
10 5738559 
11 5737484 
12 5736642 
13 5736517 
14 5735961 
15 5734842 
16 5731484 
17 5705875 
18 5705874 
19 5705479 
20 5705431 
21 5705121 
22 5700961 
23 5700699 
24 5700103 
25 5700103 
26 5695009 
27 5693946 
28 5691823 
29 5690793 
30 5689993 
31 5689940 
32 5689254 
33 5685677 
34 5685096 
35 5683767 
36 5683469 
37 5674579 
38 5670363 
39 5666844 
40 5666724 
41 5665638 
42 5665584 
43 5665584 
44 5665318 
45 5665246 
46 5665162 
47 5660086 
48 5659470 
49 5658299 
50 5657988 
51 5657461 
52 5656778 
53 5656614 
54 5656484 
55 5656373 
56 5654826 
57 5654268 
58 5653702 
59 5653484 
60 5653169 
61 5652884 
62 5643276 
63 5638152 
64 5637192 
65 5628102 
66 5627939 
67 5627481 
68 5627289 
69 5626363 
70 5621292 
71 5620736 
72 5620605 
73 5617590 
74 5603840 
75 5601891 
76 5601671 
77 5601548 
78 5594134 
79 5593702 
80 5592560 
81 5591865 
82 5591771 
83 5591245 
84 5591057 
85 5591000 
86 5590864 
87 5590756 
88 5589932 
89 5588997 
90 5588984 
91 5588310 
92 5577777 
93 5577777 
94 5577397 
95 5577363 
96 5571598 
97 5567970 
98 5567830 
99 5564995 
100 5563235 
101 5563223 
102 5562086 
103 5561708 
104 5561167 
105 5560066 
106 5560037 
107 5558630 
108 5558000 
109 5557910 
110 5553536 
111 5551454 
112 5546306 
113 5545823 
114 5545025 
115 5544985 
116 5544348 
117 5544335 
118 5544335 
119 5543215 
120 5542010 
121 5539290 
122 5539277 
123 5536929 
124 5536649 
125 5536649 
126 5536145 
127 5536045 
128 5536032 
129 5535896 
130 5535825 
131 5535391 
132 5535064 
133 5534975 
134 5534975 
135 5534962 
136 5534414 
137 5534278 
138 5534207 
139 5533773 
140 5529152 
141 5529109 
142 5525034 
143 5524974 
144 5524974 
145 5516633 
146 5516509 
147 5515560 
148 5515540 
149 5515540 
150 5515519 
151 5515399 
152 5515370 
153 5514027 
154 5509314 
155 5508415 
156 5508415 
157 5508155 
158 5507535 
159 5506547 
160 5506528 
161 5505313 
162 5502671 
163 5501238 
164 5495648 
165 5495646 
166 5495635 
167 5493063 
168 5492357 
169 5490425 
170 5490336 
171 5489056 
172 5489005 
173 5486381 
174 5486318 
175 5485913 
176 5485676 
177 5485556 
178 5485556 
179 5484871 
180 5484772 
181 5483654 
182 5482010 
183 5481989 
184 5481367 
185 5478683 
186 5477849 
187 5476858 
188 5476540 
189 5476357 
190 5476319 
191 5476286 
192 5476106 
193 5475158 
194 5472350 
195 5471621 
196 5471103 
197 5470903 
198 5470363 
199 5470154 
200 5470053 
201 5469810 
202 5469251 
203 5468992 
204 5468449 
205 5468176 
206 5467292 
207 5465036 
208 5464628 
209 5464628 
210 5464625 
211 5464535 
212 5462369 
213 5461831 
214 5461238 
215 5461207 
216 5461176 
217 5461176 
218 5461176 
219 5460554 
220 5460554 
221 5460554 
222 5460554 
223 5460357 
224 5460357 
225 5460293 
226 5460293 
227 5460293 
228 5460293 
229 5460248 
230 5460248 
231 5460248 
232 5460248 
233 5460248 
234 5460248 
235 5460248 
236 5460248 
237 5460248 
238 5460248 
239 5460248 
240 5460248 
241 5460248 
242 5460248 
243 5460248 
244 5460248 
245 5460248 
246 5460248 
247 5460248 
248 5460248 
249 5460248 
250 5460248 
251 5460248 
252 5460248 
253 5460248 
254 5460248 
255 5460248 
256 5460248 
257 5460248 
258 5460248 
259 5460248 
260 5460248 
261 5460248 
262 5460248 
263 5460248 
264 5460248 
265 5460248 
266 5460248 
267 5460248 
268 5460248 
269 5460248 
270 5460248 
271 5460248 
272 5460248 
273 5460248 
274 5460248 
275 5460248 
276 5460248 
277 5460248 
278 5460248 
279 5460248 
280 5460248 
281 5460248 
282 5460248 
283 5460248 
284 5460248 
285 5460248 
286 5460248 
287 5460248 
288 5460248 
289 5460248 
290 5460248 
291 5460248 
292 5460248 
293 5460248 
294 5460248 
295 5460248 
296 5460248 
297 5460248 
298 5460248 
299 5460248 
300 5460248 
301 5460248 
302 5460248 
303 5460248 
304 5460248 
305 5460248 
306 5460248 
307 5460248 
308 5460248 
309 5460248 
310 5460248 
311 5460248 
312 5460248 
313 5460248 
314 5460248 
315 5460248 
316 5460248 
317 5460248 
318 5460248 
319 5460248 
320 5460248 
321 5460248 
322 5460248 
323 5460248 
324 5460248 
325 5460248 
326 5460248 
327 5460248 
328 5460248 
329 5460248 
330 5460248 
331 5460248 
332 5460248 
333 5460248 
334 5460248 
335 5460248 
336 5460248 
337 5460248 
338 5460248 
339 5460248 
340 5460248 
341 5460248 
342 5460248 
343 5460248 
344 5460248 
345 5460248 
346 5460248 
347 5460248 
348 5460248 
349 5460248 
350 5460248 
351 5460248 
352 5460248 
353 5460248 
354 5460248 
355 5460248 
356 5460248 
357 5460248 
358 5460248 
359 5460248 
360 5460248 
361 5460248 
362 5460248 
363 5460248 
364 5460248 
365 5460248 
366 5460248 
367 5460248 
368 5460248 
369 5460248 
370 5460248 
371 5460248 
372 5460248 
373 5460248 
374 5460248 
375 5460248 
376 5460248 
377 5460248 
378 5460248 
379 5460248 
380 5460248 
381 5460248 
382 5460248 
383 5460248 
384 5460248 
385 5460248 
386 5460248 
387 5460248 
388 5460248 
389 5460248 
390 5460248 
391 5460248 
392 5460248 
393 5460248 
394 5460248 
395 5460248 
396 5460248 
397 5460248 
398 5460248 
399 5460248 
400 5460248 
401 5460248 
402 5460248 
403 5460248 
404 5460248 
405 5460248 
406 5460248 
407 5460248 
408 5460248 
409 5460248 
410 5460248 
411 5460248 
412 5460248 
413 5460248 
414 5460248 
415 5460248 
416 5460248 
417 5460248 
418 5460248 
419 5460248 
420 5460248 
421 5460248 
422 5460248 
423 5460248 
424 5460248 
425 5460248 
426 5460248 
427 5460248 
428 5460248 
429 5460248 
430 5460248 
431 5460248 
432 5460248 
433 5460248 
434 5460248 
435 5460248 
436 5460248 
437 5460248 
438 5460248 
439 5460248 
440 5460248 
441 5460248 
442 5460248 
443 5460248 
444 5460248 
445 5460248 
446 5460248 
447 5460248 
448 5460248 
449 5460248 
450 5460248 
451 5460248 
452 5460248 
453 5460248 
454 5460248 
455 5460248 
456 5460248 
457 5460248 
458 5460248 
459 5460248 
460 5460248 
461 5460248 
462 5460248 
463 5460248 
464 5460248 
465 5460248 
466 5460248 
467 5460248 
468 5460248 
469 5460248 
470 5460248 
471 5460248 
472 5460248 
473 5460248 
474 5460248 
475 5460248 
476 5460248 
477 5460248 
478 5460248 
479 5460248 
480 5460248 
481 5460248 
482 5460248 
483 5460248 
484 5460248 
485 5460248 
486 5460248 
487 5460248 
488 5460248 
489 5460248 
490 5460248 
491 5460248 
492 5460248 
493 5460248 
494 5460248 
495 5460248 
496 5460248 
497 5460248 
498 5460248 
499 5460248 
500 5460248 
501 5460248 
502 5460248 
503 5460248 
504 5460248 
505 5460248 
506 5460248 
507 5460248 
508 5460248 
509 5460248 
510 5460248 
511 5460248 
512 5460248 
513 5460248 
514 5460248 
515 5460248 
516 5460248 
517 5460248 
518 5460248 
519 5460248 
520 5460248 
521 5460248 
522 5460248 
523 5460248 
524 5460248 
525 5460248 
526 5460248 
527 5460248 
528 5460248 
529 5460248 
530 5460248 
531 5460248 
532 5460248 
533 5460248 
534 5460248 
535 5460248 
536 5460248 
537 5460248 
538 5460248 
539 5460248 
540 5460248 
541 5460248 
542 5460248 
543 5460248 
544 5460248 
545 5460248 
546 5460248 
547 5460248 
548 5460248 
549 5460248 
550 5460248 
551 5460248 
552 5460248 
553 5460248 
554 5460248 
555 5460248 
556 5460248 
557 5460248 
558 5460248 
559 5460248 
560 5460248 
561 5460248 
562 5460248 
563 5460248 
564 5460248 
565 5460248 
566 5460248 
567 5460248 
568 5460248 
569 5460248 
570 5460248 
571 5460248 
572 5460248 
573 5460248 
574 5460248 
575 5460248 
576 5460248 
577 5460248 
578 5460248 
579 5460248 
580 5460248 
581 5460248 
582 5460248 
583 5460248 
584 5460248 
585 5460248 
586 5460248 
587 5460248 
588 5460248 
589 5460248 
590 5460248 
591 5460248 
592 5460248 
593 5460248 
594 5460248 
595 5460248 
596 5460248 
597 5460248 
598 5460248 
599 5460248 
600 5460248 
601 5460248 
602 5460248 
603 5460248 
604 5460248 
605 5460248 
606 5460248 
607 5460248 
608 5460248 
609 5460248 
610 5460248 
611 5460248 
612 5460248 
613 5460248 
614 5460248 
615 5460248 
616 5460248 
617 5460248 
618 5460248 
619 5460248 
620 5460248 
621 5460248 
622 5460248 
623 5460248 
624 5460248 
625 5460248 
626 5460248 
627 5460248 
628 5460248 
629 5460248 
630 5460248 
631 5460248 
632 5460248 
633 5460248 
634 5460248 
635 5460248 
636 5460248 
637 5460248 
638 5460248 
639 5460248 
640 5460248 
641 5460248 
642 5460248 
643 5460248 
644 5460248 
645 5460248 
646 5460248 
647 5460248 
648 5460248 
649 5460248 
650 5460248 
651 5460248 
652 5460248 
653 5460248 
654 5460248 
655 5460248 
656 5460248 
657 5460248 
658 5460248 
659 5460248 
660 5460248 
661 5460248 
662 5460248 
663 5460248 
664 5460248 
665 5460248 
666 5460248 
667 5460248 
668 5460248 
669 5460248 
670 5460248 
671 5460248 
672 5460248 
673 5460248 
674 5460248 
675 5460248 
676 5460248 
677 5460248 
678 5460248 
679 5460248 
680 5460248 
681 5460248 
682 5460248 
683 5460248 
684 5460248 
685 5460248 
686 5460248 
687 5460248 
688 5460248 
689 5460248 
690 5460248 
691 5460248 
692 5460248 
693 5460248 
694 5460248 
695 5460248 
696 5460248 
697 5460248 
698 5460248 
699 5460248 
700 5460248 
701 5460248 
702 5460248 
703 5460248 
704 5460248 
705 5460248 
706 5460248 
707 5460248 
708 5460248 
709 5460248 
710 5460248 
711 5460248 
712 5460248 
713 5460248 
714 5460248 
715 5460248 
716 5460248 
717 5460248 
718 5460248 
719 5460248 
720 5460248 
721 5460248 
722 5460248 
723 5460248 
724 5460248 
725 5460248 
726 5460248 
727 5460248 
728 5460248 
729 5460248 
730 5460248 
731 5460248 
732 5460248 
733 5460248 
734 5460248 
735 5460248 
736 5460248 
737 5460248 
738 5460248 
739 5460248 
740 5460248 
741 5460248 
742 5460248 
743 5460248 
744 5460248 
745 5460248 
746 5460248 
747 5460248 
748 5460248 
749 5460248 
750 5460248 
751 5460248 
752 5460248 
753 5460248 
754 5460248 
755 5460248 
756 5460248 
757 5460248 
758 5460248 
759 5460248 
760 5460248 
761 5460248 
762 5460248 
763 5460248 
764 5460248 
765 5460248 
766 5460248 
767 5460248 
768 5460248 
769 5460248 
770 5460248 
771 5460248 
772 5460248 
773 5460248 
774 5460248 
775 5460248 
776 5460248 
777 5460248 
778 5460248 
779 5460248 
780 5460248 
781 5460248 
782 5460248 
783 5460248 
784 5460248 
785 5460248 
786 5460248 
787 5460248 
788 5460248 
789 5460248 
790 5460248 
791 5460248 
792 5460248 
793 5460248 
794 5460248 
795 5460248 
796 5460248 
797 5460248 
798 5460248 
799 5460248 
800 5460248 
801 5460248 
802 5460248 
803 5460248 
804 5460248 
805 5460248 
806 5460248 
807 5460248 
808 5460248 
809 5460248 
810 5460248 
811 5460248 
812 5460248 
813 5460248 
814 5460248 
815 5460248 
816 5460248 
817 5460248 
818 5460248 
819 5460248 
820 5460248 
821 5460248 
822 5460248 
823 5460248 
824 5460248 
825 5460248 
826 5460248 
827 5460248 
828 5460248 
829 5460248 
830 5460248 
831 5460248 
832 5460248 
833 5460248 
834 5460248 
835 5460248 
836 5460248 
837 5460248 
838 5460248 
839 5460248 
840 5460248 
841 5460248 
842 5460248 
843 5460248 
844 5460248 
845 5460248 
846 5460248 
847 5460248 
848 5460248 
849 5460248 
850 5460248 
851 5460248 
852 5460248 
853 5460248 
854 5460248 
855 5460248 
856 5460248 
857 5460248 
858 5460248 
859 5460248 
860 5460248 
861 5460248 
862 5460248 
863 5460248 
864 5460248 
865 5460248 
866 5460248 
867 5460248 
868 5460248 
869 5460248 
870 5460248 
871 5460248 
872 5460248 
873 5460248 
874 5460248 
875 5460248 
876 5460248 
877 5460248 
878 5460248 
879 5460248 
880 5460248 
881 5460248 
882 5460248 
883 5460248 
884 5460248 
885 5460248 
886 5460248 
887 5460248 
888 5460248 
889 5460248 
890 5460248 
891 5460248 
892 5460248 
893 5460248 
894 5460248 
895 5460248 
896 5460248 
897 5460248 
898 5460248 
899 5460248 
900 5460248 
901 5460248 
902 5460248 
903 5460248 
904 5460248 
905 5460248 
906 5460248 
907 5460248 
908 5460248 
909 5460248 
910 5460248 
911 5460248 
912 5460248 
913 5460248 
914 5460248 
915 5460248 
916 5460248 
917 5460248 
918 5460248 
919 5460248 
920 5460248 
921 5460248 
922 5460248 
923 5460248 
924 5460248 
925 5460248 
926 5460248 
927 5460248 
928 5460248 
929 5460248 
930 5460248 
931 5460248 
932 5460248 
933 5460248 
934 5460248 
935 5460248 
936 5460248 
937 5460248 
938 5460248 
939 5460248 
940 5460248 
941 5460248 
942 5460248 
943 5460248 
944 5460248 
945 5460248 
946 5460248 
947 5460248 
948 5460248 
949 5460248 
950 5460248 
951 5460248 
952 5460248 
953 5460248 
954 5460248 
955 5460248 
956 5460248 
957 5460248 
958 5460248 
959 5460248 
960 5460248 
961 5460248 
962 5460248 
963 5460248 
964 5460248 
965 5460248 
966 5460248 
967 5460248 
968 5460248 
969 5460248 
970 5460248 
971 5460248 
972 5460248 
973 5460248 
974 5460248 
975 5460248 
976 5460248 
977 5460248 
978 5460248 
979 5460248 
980 5460248 
981 5460248 
982 5460248 
983 5460248 
984 5460248 
985 5460248 
986 5460248 
987 5460248 
988 5460248 
989 5460248 
990 5460248 
991 5460248 
992 5460248 
993 5460248 
994 5460248 
995 5460248 
996 5460248 
997 5460248 
998 5460248 
999 5460248 
1000 5460248 
1001 5460248 
1002 5460248 
1003 5460248 
1004 5460248 
1005 5460248 
1006 5460248 
1007 5460248 
1008 5460248 
1009 5460248 
1010 5460248 
1011 5460248 
1012 5460248 
1013 5460248 
1014 5460248 
1015 5460248 
1016 5460248 
1017 5460248 
1018 5460248 
1019 5460248 
1020 5460248 
1021 5460248 
1022 5460248 
1023 5460248 
1024 5460248 
1025 5460248 
1026 5460248 
1027 5460248 
1028 5460248 
1029 5460248 
1030 5460248 
1031 5460248 
1032 5460248 
1033 5460248 
1034 5460248 
1035 5460248 
1036 5460248 
1037 5460248 
1038 5460248 
1039 5460248 
1040 5460248 
1041 5460248 
1042 5460248 
1043 5460248 
1044 5460248 
1045 5460248 
1046 5460248 
1047 5460248 
1048 5460248 
1049 5460248 
1050 5460248 
1051 5460248 
1052 5460248 
1053 5460248 
1054 5460248 
1055 5460248 
1056 5460248 
1057 5460248 
1058 5460248 
1059 5460248 
1060 5460248 
1061 5460248 
1062 5460248 
1063 5460248 
1064 5460248 
1065 5460248 
1066 5460248 
1067 5460248 
1068 5460248 
1069 5460248 
1070 5460248 
1071 5460248 
1072 5460248 
1073 5460248 
1074 5460248 
1075 5460248 
1076 5460248 
1077 5460248 
1078 5460248 
1079 5460248 
1080 5460248 
1081 5460248 
1082 5460248 
1083 5460248 
1084 5460248 
1085 5460248 
1086 5460248 
1087 5460248 
1088 5460248 
1089 5460248 
1090 5460248 
1091 5460248 
1092 5460248 
1093 5460248 
1094 5460248 
1095 5460248 
1096 5460248 
1097 5460248 
1098 5460248 
1099 5460248 
1100 5460248 
1101 5460248 
1102 5460248 
1103 5460248 
1104 5460248 
1105 5460248 
1106 5460248 
1107 5460248 
1108 5460248 
1109 5460248 
1110 5460248 
1111 5460248 
1112 5460248 
1113 5460248 
1114 5460248 
1115 5460248 
1116 5460248 
1117 5460248 
1118 5460248 
1119 5460248 
1120 5460248 
1121 5460248 
1122 5460248 
1123 5460248 
1124 5460248 
1125 5460248 
1126 5460248 
1127 5460248 
1128 5460248 
1129 5460248 
1130 5460248 
1131 5460248 
1132 5460248 
1133 5460248 
1134 5460248 
1135 5460248 
1136 5460248 
1137 5460248 
1138 5460248 
1139 5460248 
1140 5460248 
1141 5460248 
1142 5460248 
1143 5460248 
1144 5460248 
1145 5460248 
1146 5460248 
1147 5460248 
1148 5460248 
1149 5460248 
1150 5460248 
1151 5460248 
1152 5460248 
1153 5460248 
1154 5460248 
1155 5460248 
1156 5460248 
1157 5460248 
1158 5460248 
1159 5460248 
1160 5460248 
1161 5460248 
1162 5460248 
1163 5460248 
1164 5460248 
1165 5460248 
1166 5460248 
1167 5460248 
1168 5460248 
1169 5460248 
1170 5460248 
1171 5460248 
1172 5460248 
1173 5460248 
1174 5460248 
1175 5460248 
1176 5460248 
1177 5460248 
1178 5460248 
1179 5460248 
1180 5460248 
1181 5460248 
1182 5460248 
1183 5460248 
1184 5460248 
1185 5460248 
1186 5460248 
1187 5460248 
1188 5460248 
1189 5460248 
1190 5460248 
1191 5460248 
1192 5460248 
1193 5460248 
1194 5460248 
1195 5460248 
1196 5460248 
1197 5460248 
1198 5460248 
1199 5460248 
1200 5460248 
1201 5460248 
1202 5460248 
1203 5460248 
1204 5460248 
1205 5460248 
1206 5460248 
1207 5460248 
1208 5460248 
1209 5460248 
1210 5460248 
1211 5460248 
1212 5460248 
1213 5460248 
1214 5460248 
1215 5460248 
1216 5460248 
1217 5460248 
1218 5460248 
1219 5460248 
1220 5460248 
1221 5460248 
1222 5460248 
1223 5460248 
1224 5460248 
1225 5460248 
1226 5460248 
1227 5460248 
1228 5460248 
1229 5460248 
1230 5460248 
1231 5460248 
1232 5460248 
1233 5460248 
1234 5460248 
1235 5460248 
1236 5460248 
1237 5460248 
1238 5460248 
1239 5460248 
1240 5460248 
1241 5460248 
1242 5460248 
1243 5460248 
1244 5460248 
1245 5460248 
1246 5460248 
1247 5460248 
1248 5460248 
1249 5460248 
1250 5460248 
1251 5460248 
1252 5460248 
1253 5460248 
1254 5460248 
1255 5460248 
1256 5460248 
1257 5460248 
1258 5460248 
1259 5460248 
1260 5460248 
1261 5460248 
1262 5460248 
1263 5460248 
1264 5460248 
1265 5460248 
1266 5460248 
1267 5460248 
1268 5460248 
1269 5460248 
1270 5460248 
1271 5460248 
1272 5460248 
1273 5460248 
1274 5460248 
1275 5460248 
1276 5460248 
1277 5460248 
1278 5460248 
1279 5460248 
1280 5460248 
1281 5460248 
1282 5460248 
1283 5460248 
1284 5460248 
1285 5460248 
1286 5460248 
1287 5460248 
1288 5460248 
1289 5460248 
1290 5460248 
1291 5460248 
1292 5460248 
1293 5460248 
1294 5460248 
1295 5460248 
1296 5460248 
1297 5460248 
1298 5460248 
1299 5460248 
1300 5460248 
1301 5460248 
1302 5460248 
1303 5460248 
1304 5460248 
1305 5460248 
1306 5460248 
1307 5460248 
1308 5460248 
1309 5460248 
1310 5460248 
1311 5460248 
1312 5460248 
1313 5460248 
1314 5460248 
1315 5460248 
1316 5460248 
1317 5460248 
1318 5460248 
1319 5460248 
1320 5460248 
1321 5460248 
1322 5460248 
1323 5460248 
1324 5460248 
1325 5460248 
1326 5460248 
1327 5460248 
1328 5460248 
1329 5460248 
1330 5460248 
1331 5460248 
1332 5460248 
1333 5460248 
1334 5460248 
1335 5460248 
1336 5460248 
1337 5460248 
1338 5460248 
1339 5460248 
1340 5460248 
1341 5460248 
1342 5460248 
1343 5460248 
1344 5460248 
1345 5460248 
1346 5460248 
1347 5460248 
1348 5460248 
1349 5460248 
1350 5460248 
1351 5460248 
1352 5460248 
1353 5460248 
1354 5460248 
1355 5460248 
1356 5460248 
1357 5460248 
1358 5460248 
1359 5460248 
1360 5460248 
1361 5460248 
1362 5460248 
1363 5460248 
1364 5460248 
1365 5460248 
1366 5460248 
1367 5460248 
1368 5460248 
1369 5460248 
1370 5460248 
1371 5460248 
1372 5460248 
1373 5460248 
1374 5460248 
1375 5460248 
1376 5460248 
1377 5460248 
1378 5460248 
1379 5460248 
1380 5460248 
1381 5460248 
1382 5460248 
1383 5460248 
1384 5460248 
1385 5460248 
1386 5460248 
1387 5460248 
1388 5460248 
1389 5460248 
1390 5460248 
1391 5460248 
1392 5460248 
1393 5460248 
1394 5460248 
1395 5460248 
1396 5460248 
1397 5460248 
1398 5460248 
1399 5460248 
1400 5460248 
1401 5460248 
1402 5460248 
1403 5460248 
1404 5460248 
1405 5460248 
1406 5460248 
1407 5460248 
1408 5460248 
1409 5460248 
1410 5460248 
1411 5460248 
1412 5460248 
1413 5460248 
1414 5460248 
1415 5460248 
1416 5460248 
1417 5460248 
1418 5460248 
1419 5460248 
1420 5460248 
1421 5460248 
1422 5460248 
1423 5460248 
1424 5460248 
1425 5460248 
1426 5460248 
1427 5460248 
1428 5460248 
1429 5460248 
1430 5460248 
1431 5460248 
1432 5460248 
1433 5460248 
1434 5460248 
1435 5460248 
1436 5460248 
1437 5460248 
1438 5460248 
1439 5460248 
1440 5460248 
1441 5460248 
1442 5460248 
1443 5460248 
1444 5460248 
1445 5460248 
1446 5460248 
1447 5460248 
1448 5460248 
1449 5460248 
1450 5460248 
1451 5460248 
1452 5460248 
1453 5460248 
1454 5460248 
1455 5460248 
1456 5460248 
1457 5460248 
1458 5460248 
1459 5460248 
1460 5460248 
1461 5460248 
1462 5460248 
1463 5460248 
1464 5460248 
1465 5460248 
1466 5460248 
1467 5460248 
1468 5460248 
1469 5460248 
1470 5460248 
1471 5460248 
1472 5460248 
1473 5460248 
1474 5460248 
1475 5460248 
1476 5460248 
1477 5460248 
1478 5460248 
1479 5460248 
1480 5460248 
1481 5460248 
1482 5460248 
1483 5460248 
1484 5460248 
1485 5460248 
1486 5460248 
1487 5460248 
1488 5460248 
1489 5460248 
1490 5460248 
1491 5460248 
1492 5460248 
1493 5460248 
1494 5460248 
1495 5460248 
1496 5460248 
1497 5460248 
1498 5460248 
1499 5460248 
1500 5460248 
1501 5460248 
1502 5460248 
1503 5460248 
1504 5460248 
1505 5460248 
1506 5460248 
1507 5460248 
1508 5460248 
1509 5460248 
1510 5460248 
1511 5460248 
1512 5460248 
1513 5460248 
1514 5460248 
1515 5460248 
1516 5460248 
1517 5460248 
1518 5460248 
1519 5460248 
1520 5460248 
1521 5460248 
1522 5460248 
1523 5460248 
1524 5460248 
1525 5460248 
1526 5460248 
1527 5460248 
1528 5460248 
1529 5460248 
1530 5460248 
1531 5460248 
1532 5460248 
1533 5460248 
1534 5460248 
1535 5460248 
1536 5460248 
1537 5460248 
1538 5460248 
1539 5460248 
1540 5460248 
1541 5460248 
1542 5460248 
1543 5460248 
1544 5460248 
1545 5460248 
1546 5460248 
1547 5460248 
1548 5460248 
1549 5460248 
1550 5460248 
1551 5460248 
1552 5460248 
1553 5460248 
1554 5460248 
1555 5460248 
1556 5460248 
1557 5460248 
1558 5460248 
1559 5460248 
1560 5460248 
1561 5460248 
1562 5460248 
1563 5460248 
1564 5460248 
1565 5460248 
1566 5460248 
1567 5460248 
1568 5460248 
1569 5460248 
1570 5460248 
1571 5460248 
1572 5460248 
1573 5460248 
1574 5460248 
1575 5460248 
1576 5460248 
1577 5460248 
1578 5460248 
1579 5460248 
1580 5460248 
1581 5460248 
1582 5460248 
1583 5460248 
1584 5460248 
1585 5460248 
1586 5460248 
1587 5460248 
1588 5460248 
1589 5460248 
1590 5460248 
1591 5460248 
1592 5460248 
1593 5460248 
1594 5460248 
1595 5460248 
1596 5460248 
1597 5460248 
1598 5460248 
1599 5460248 
1600 5460248 
1601 5460248 
1602 5460248 
1603 5460248 
1604 5460248 
1605 5460248 
1606 5460248 
1607 5460248 
1608 5460248 
1609 5460248 
1610 5460248 
1611 5460248 
1612 5460248 
1613 5460248 
1614 5460248 
1615 5460248 
1616 5460248 
1617 5460248 
1618 5460248 
1619 5460248 
1620 5460248 
1621 5460248 
1622 5460248 
1623 5460248 
1624 5460248 
1625 5460248 
1626 5460248 
1627 5460248 
1628 5460248 
1629 5460248 
1630 5460248 
1631 5460248 
1632 5460248 
1633 5460248 
1634 5460248 
1635 5460248 
1636 5460248 
1637 5460248 
1638 5460248 
1639 5460248 
1640 5460248 
1641 5460248 
1642 5460248 
1643 5460248 
1644 5460248 
1645 5460248 
1646 5460248 
1647 5460248 
1648 5460248 
1649 5460248 
1650 5460248 
1651 5460248 
1652 5460248 
1653 5460248 
1654 5460248 
1655 5460248 
1656 5460248 
1657 5460248 
1658 5460248 
1659 5460248 
1660 5460248 
1661 5460248 
1662 5460248 
1663 5460248 
1664 5460248 
1665 5460248 
1666 5460248 
1667 5460248 
1668 5460248 
1669 5460248 
1670 5460248 
1671 5460248 
1672 5460248 
1673 5460248 
1674 5460248 
1675 5460248 
1676 5460248 
1677 5460248 
1678 5460248 
1679 5460248 
1680 5460248 
1681 5460248 
1682 5460248 
1683 5460248 
1684 5460248 
1685 5460248 
1686 5460248 
1687 5460248 
1688 5460248 
1689 5460248 
1690 5460248 
1691 5460248 
1692 5460248 
1693 5460248 
1694 5460248 
1695 5460248 
1696 5460248 
1697 5460248 
1698 5460248 
1699 5460248 
1700 5460248 
1701 5460248 
1702 5460248 
1703 5460248 
1704 5460248 
1705 5460248 
1706 5460248 
1707 5460248 
1708 5460248 
1709 5460248 
1710 5460248 
1711 5460248 
1712 5460248 
1713 5460248 
1714 5460248 
1715 5460248 
1716 5460248 
1717 5460248 
1718 5460248 
1719 5460248 
1720 5460248 
1721 5460248 
1722 5460248 
1723 5460248 
1724 5460248 
1725 5460248 
1726 5460248 
1727 5460248 
1728 5460248 
1729 5460248 
1730 5460248 
1731 5460248 
1732 5460248 
1733 5460248 
1734 5460248 
1735 5460248 
1736 5460248 
1737 5460248 
1738 5460248 
1739 5460248 
1740 5460248 
1741 5460248 
1742 5460248 
1743 5460248 
1744 5460248 
1745 5460248 
1746 5460248 
1747 5460248 
1748 5460248 
1749 5460248 
1750 5460248 
1751 5460248 
1752 5460248 
1753 5460248 
1754 5460248 
1755 5460248 
1756 5460248 
1757 5460248 
1758 5460248 
1759 5460248 
1760 5460248 
1761 5460248 
1762 5460248 
1763 5460248 
1764 5460248 
1765 5460248 
1766 5460248 
1767 5460248 
1768 5460248 
1769 5460248 
1770 5460248 
1771 5460248 
1772 5460248 
1773 5460248 
1774 5460248 
1775 5460248 
1776 5460248 
1777 5460248 
1778 5460248 
1779 5460248 
1780 5460248 
1781 5460248 
1782 5460248 
1783 5460248 
1784 5460248 
1785 5460248 
1786 5460248 
1787 5460248 
1788 5460248 
1789 5460248 
1790 5460248 
1791 5460248 
1792 5460248 
1793 5460248 
1794 5460248 
1795 5460248 
1796 5460248 
1797 5460248 
1798 5460248 
1799 5460248 
1800 5460248 
1801 5460248 
1802 5460248 
1803 5460248 
1804 5460248 
1805 5460248 
1806 5460248 
1807 5460248 
1808 5460248 
1809 5460248 
1810 5460248 
1811 5460248 
1812 5460248 
1813 5460248 
1814 5460248 
1815 5460248 
1816 5460248 
1817 5460248 
1818 5460248 
1819 5460248 
1820 5460248 
1821 5460248 
1822 5460248 
1823 5460248 
1824 5460248 
1825 5460248 
1826 5460248 
1827 5460248 
1828 5460248 
1829 5460248 
1830 5460248 
1831 5460248 
1832 5460248 
1833 5460248 
1834 5460248 
1835 5460248 
1836 5460248 
1837 5460248 
1838 5460248 
1839 5460248 
1840 5460248 
1841 5460248 
1842 5460248 
1843 5460248 
1844 5460248 
1845 5460248 
1846 5460248 
1847 5460248 
1848 5460248 
1849 5460248 
1850 5460248 
1851 5460248 
1852 5460248 
1853 5460248 
1854 5460248 
1855 5460248 
1856 5460248 
1857 5460248 
1858 5460248 
1859 5460248 
1860 5460248 
1861 5460248 
1862 5460248 
1863 5460248 
1864 5460248 
1865 5460248 
1866 5460248 
1867 5460248 
1868 5460248 
1869 5460248 
1870 5460248 
1871 5460248 
1872 5460248 
1873 5460248 
1874 5460248 
1875 5460248 
1876 5460248 
1877 5460248 
1878 5460248 
1879 5460248 
1880 5460248 
1881 5460248 
1882 5460248 
1883 5460248 
1884 5460248 
1885 5460248 
1886 5460248 
1887 5460248 
1888 5460248 
1889 5460248 
1890 5460248 
1891 5460248 
1892 5460248 
1893 5460248 
1894 5460248 
1895 5460248 
1896 5460248 
1897 5460248 
1898 5460248 
1899 5460248 
1900 5460248 
1901 5460248 
1902 5460248 
1903 5460248 
1904 5460248 
1905 5460248 
1906 5460248 
1907 5460248 
1908 5460248 
1909 5460248 
1910 5460248 
1911 5460248 
1912 5460248 
1913 5460248 
1914 5460248 
1915 5460248 
1916 5460248 
1917 5460248 
1918 5460248 
1919 5460248 
1920 5460248 
1921 5460248 
1922 5460248 
1923 5460248 
1924 5460248 
1925 5460248 
1926 5460248 
1927 5460248 
1928 5460248 
1929 5460248 
1930 5460248 
1931 5460248 
1932 5460248 
1933 5460248 
1934 5460248 
1935 5460248 
1936 5460248 
1937 5460248 
1938 5460248 
1939 5460248 
1940 5460248 
1941 5460248 
1942 5460248 
1943 5460248 
1944 5460248 
1945 5460248 
1946 5460248 
1947 5460248 
1948 5460248 
1949 5460248 
1950 5460248 
1951 5460248 
1952 5460248 
1953 5460248 
1954 5460248 
1955 5460248 
1956 5460248 
1957 5460248 
1958 5460248 
1959 5460248 
1960 5460248 
1961 5460248 
1962 5460248 
1963 5460248 
1964 5460248 
1965 5460248 
1966 5460248 
1967 5460248 
1968 5460248 
1969 5460248 
1970 5460248 
1971 5460248 
1972 5460248 
1973 5460248 
1974 5460248 
1975 5460248 
1976 5460248 
1977 5460248 
1978 5460248 
1979 5460248 
1980 5460248 
1981 5460248 
1982 5460248 
1983 5460248 
1984 5460248 
1985 5460248 
1986 5460248 
1987 5460248 
1988 5460248 
1989 5460248 
1990 5460248 
1991 5460248 
1992 5460248 
1993 5460248 
1994 5460248 
1995 5460248 
1996 5460248 
1997 5460248 
1998 5460248 
1999 5460248 
2000 5460248 
2001 5460248 
2002 5460248 
2003 5460248 
2004 5460248 
2005 5460248 
2006 5460248 
2007 5460248 
2008 5460248 
2009 5460248 
2010 5460248 
2011 5460248 
2012 5460248 
2013 5460248 
2014 5460248 
2015 5460248 
2016 5460248 
2017 5460248 
2018 5460248 
2019 5460248 
2020 5460248 
2021 5460248 
2022 5460248 
2023 5460248 
2024 5460248 
2025 5460248 
2026 5460248 
2027 5460248 
2028 5460248 
2029 5460248 
2030 5460248 
2031 5460248 
2032 5460248 
2033 5460248 
2034 5460248 
2035 5460248 
2036 5460248 
2037 5460248 
2038 5460248 
2039 5460248 
2040 5460248 
2041 5460248 
2042 5460248 
2043 5460248 
2044 5460248 
2045 5460248 
2046 5460248 
2047 5460248 
2048 5460248 
2049 5460248 
2050 5460248 
2051 5460248 
2052 5460248 
2053 5460248 
2054 5460248 
2055 5460248 
2056 5460248 
2057 5460248 
2058 5460248 
2059 5460248 
2060 5460248 
2061 5460248 
2062 5460248 
2063 5460248 
2064 5460248 
2065 5460248 
2066 5460248 
2067 5460248 
2068 5460248 
2069 5460248 
2070 5460248 
2071 5460248 
2072 5460248 
2073 5460248 
2074 5460248 
2075 5460248 
2076 5460248 
2077 5460248 
2078 5460248 
2079 5460248 
2080 5460248 
2081 5460248 
2082 5460248 
2083 5460248 
2084 5460248 
2085 5460248 
2086 5460248 
2087 5460248 
2088 5460248 
2089 5460248 
2090 5460248 
2091 5460248 
2092 5460248 
2093 5460248 
2094 5460248 
2095 5460248 
2096 5460248 
2097 5460248 
2098 5460248 
2099 5460248 
2100 5460248 
2101 5460248 
2102 5460248 
2103 5460248 
2104 5460248 
2105 5460248 
2106 5460248 
2107 5460248 
2108 5460248 
2109 5460248 
2110 5460248 
2111 5460248 
2112 5460248 
2113 5460248 
2114 5460248 
2115 5460248 
2116 5460248 
2117 5460248 
2118 5460248 
2119 5460248 
2120 5460248 
2121 5460248 
2122 5460248 
2123 5460248 
2124 5460248 
2125 5460248 
2126 5460248 
2127 5460248 
2128 5460248 
2129 5460248 
2130 5460248 
2131 5460248 
2132 5460248 
2133 5460248 
2134 5460248 
2135 5460248 
2136 5460248 
2137 5460248 
2138 5460248 
2139 5460248 
2140 5460248 
2141 5460248 
2142 5460248 
2143 5460248 
2144 5460248 
2145 5460248 
2146 5460248 
2147 5460248 
2148 5460248 
2149 5460248 
2150 5460248 
2151 5460248 
2152 5460248 
2153 5460248 
2154 5460248 
2155 5460248 
2156 5460248 
2157 5460248 
2158 5460248 
2159 5460248 
2160 5460248 
2161 5460248 
2162 5460248 
2163 5460248 
2164 5460248 
2165 5460248 
2166 5460248 
2167 5460248 
2168 5460248 
2169 5460248 
2170 5460248 
2171 5460248 
2172 5460248 
2173 5460248 
2174 5460248 
2175 5460248 
2176 5460248 
2177 5460248 
2178 5460248 
2179 5460248 
2180 5460248 
2181 5460248 
2182 5460248 
2183 5460248 
2184 5460248 
2185 5460248 
2186 5460248 
2187 5460248 
2188 5460248 
2189 5460248 
2190 5460248 
2191 5460248 
2192 5460248 
2193 5460248 
2194 5460248 
2195 5460248 
2196 5460248 
2197 5460248 
2198 5460248 
2199 5460248 
2200 5460248 
2201 5460248 
2202 5460248 
2203 5460248 
2204 5460248 
2205 5460248 
2206 5460248 
2207 5460248 
2208 5460248 
2209 5460248 
2210 5460248 
2211 5460248 
2212 5460248 
2213 5460248 
2214 5460248 
2215 5460248 
2216 5460248 
2217 5460248 
2218 5460248 
2219 5460248 
2220 5460248 
2221 5460248 
2222 5460248 
2223 5460248 
2224 5460248 
2225 5460248 
2226 5460248 
2227 5460248 
2228 5460248 
2229 5460248 
2230 5460248 
2231 5460248 
2232 5460248 
2233 5460248 
2234 5460248 
2235 5460248 
2236 5460248 
2237 5460248 
2238 5460248 
2239 5460248 
2240 5460248 
2241 5460248 
2242 5460248 
2243 5460248 
2244 5460248 
2245 5460248 
2246 5460248 
2247 5460248 
2248 5460248 
2249 5460248 
2250 5460248 
2251 5460248 
2252 5460248 
2253 5460248 
2254 5460248 
2255 5460248 
2256 5460248 
2257 5460248 
2258 5460248 
2259 5460248 
2260 5460248 
2261 5460248 
2262 5460248 
2263 5460248 
2264 5460248 
2265 5460248 
2266 5460248 
2267 5460248 
2268 5460248 
2269 5460248 
2270 5460248 
2271 5460248 
2272 5460248 
2273 5460248 
2274 5460248 
2275 5460248 
2276 5460248 
2277 5460248 
2278 5460248 
2279 5460248 
2280 5460248 
2281 5460248 
2282 5460248 
2283 5460248 
2284 5460248 
2285 5460248 
2286 5460248 
2287 5460248 
2288 5460248 
2289 5460248 
2290 5460248 
2291 5460248 
2292 5460248 
2293 5460248 
2294 5460248 
2295 5460248 
2296 5460248 
2297 5460248 
2298 5460248 
2299 5460248 
2300 5460248 
2301 5460248 
2302 5460248 
2303 5460248 
2304 5460248 
2305 5460248 
2306 5460248 
2307 5460248 
2308 5460248 
2309 5460248 
2310 5460248 
2311 5460248 
2312 5460248 
2313 5460248 
2314 5460248 
2315 5460248 
2316 5460248 
2317 5460248 
2318 5460248 
2319 5460248 
2320 5460248 
2321 5460248 
2322 5460248 
2323 5460248 
2324 5460248 
2325 5460248 
2326 5460248 
2327 5460248 
2328 5460248 
2329 5460248 
2330 5460248 
2331 5460248 
2332 5460248 
2333 5460248 
2334 5460248 
2335 5460248 
2336 5460248 
2337 5460248 
2338 5460248 
2339 5460248 
2340 5460248 
2341 5460248 
2342 5460248 
2343 5460248 
2344 5460248 
2345 5460248 
2346 5460248 
2347 5460248 
2348 5460248 
2349 5460248 
2350 5460248 
2351 5460248 
2352 5460248 
2353 5460248 
2354 5460248 
2355 5460248 
2356 5460248 
2357 5460248 
2358 5460248 
2359 5460248 
2360 5460248 
2361 5460248 
2362 5460248 
2363 5460248 
2364 5460248 
2365 5460248 
2366 5460248 
2367 5460248 
2368 5460248 
2369 5460248 
2370 5460248 
2371 5460248 
2372 5460248 
2373 5460248 
2374 5460248 
2375 5460248 
2376 5460248 
2377 5460248 
2378 5460248 
2379 5460248 
2380 5460248 
2381 5460248 
2382 5460248 
2383 5460248 
2384 5460248 
2385 5460248 
2386 5460248 
2387 5460248 
2388 5460248 
2389 5460248 
2390 5460248 
2391 5460248 
2392 5460248 
2393 5460248 
2394 5460248 
2395 5460248 
2396 5460248 
2397 5460248 
2398 5460248 
2399 5460248 
2400 5460248 
2401 5460248 
2402 5460248 
2403 5460248 
2404 5460248 
2405 5460248 
2406 5460248 
2407 5460248 
2408 5460248 
2409 5460248 
2410 5460248 
2411 5460248 
2412 5460248 
2413 5460248 
2414 5460248 
2415 5460248 
2416 5460248 
2417 5460248 
2418 5460248 
2419 5460248 
2420 5460248 
2421 5460248 
2422 5460248 
2423 5460248 
2424 5460248 
2425 5460248 
2426 5460248 
2427 5460248 
2428 5460248 
2429 5460248 
2430 5460248 
2431 5460248 
2432 5460248 
2433 5460248 
2434 5460248 
2435 5460248 
2436 5460248 
2437 5460248 
2438 5460248 
2439 5460248 
2440 5460248 
2441 5460248 
2442 5460248 
2443 5460248 
2444 5460248 
2445 5460248 
2446 5460248 
2447 5460248 
2448 5460248 
2449 5460248 
2450 5460248 
2451 5460248 
2452 5460248 
2453 5460248 
2454 5460248 
2455 5460248 
2456 5460248 
2457 5460248 
2458 5460248 
2459 5460248 
2460 5460248 
2461 5460248 
2462 5460248 
2463 5460248 
2464 5460248 
2465 5460248 
2466 5460248 
2467 5460248 
2468 5460248 
2469 5460248 
2470 5460248 
2471 5460248 
2472 5460248 
2473 5460248 
2474 5460248 
2475 5460248 
2476 5460248 
2477 5460248 
2478 5460248 
2479 5460248 
2480 5460248 
2481 5460248 
2482 5460248 
2483 5460248 
2484 5460248 
2485 5460248 
2486 5460248 
2487 5460248 
2488 5460248 
2489 5460248 
2490 5460248 
2491 5460248 
2492 5460248 
2493 5460248 
2494 5460248 
2495 5460248 
2496 5460248 
2497 5460248 
2498 5460248 
2499 5460248 
2500 5460248 
2501 5460248 
2502 5460248 
2503 5460248 
2504 5460248 
2505 5460248 
2506 5460248 
2507 5460248 
2508 5460248 
2509 5460248 
2510 5460248 
2511 5460248 
2512 5460248 
2513 5460248 
2514 5460248 
2515 5460248 
2516 5460248 
2517 5460248 
2518 5460248 
2519 5460248 
2520 5460248 
2521 5460248 
2522 5460248 
2523 5460248 
2524 5460248 
2525 5460248 
2526 5460248 
2527 5460248 
2528 5460248 
2529 5460248 
2530 5460248 
2531 5460248 
2532 5460248 
2533 5460248 
2534 5460248 
2535 5460248 
2536 5460248 
2537 5460248 
2538 5460248 
2539 5460248 
2540 5460248 
2541 5460248 
2542 5460248 
2543 5460248 
2544 5460248 
2545 5460248 
2546 5460248 
2547 5460248 
2548 5460248 
2549 5460248 
2550 5460248 
2551 5460248 
2552 5460248 
2553 5460248 
2554 5460248 
2555 5460248 
2556 5460248 
2557 5460248 
2558 5460248 
2559 5460248 
2560 5460248 
2561 5460248 
2562 5460248 
2563 5460248 
2564 5460248 
2565 5460248 
2566 5460248 
2567 5460248 
2568 5460248 
2569 5460248 
2570 5460248 
2571 5460248 
2572 5460248 
2573 5460248 
2574 5460248 
2575 5460248 
2576 5460248 
2577 5460248 
2578 5460248 
2579 5460248 
2580 5460248 
2581 5460248 
2582 5460248 
2583 5460248 
2584 5460248 
2585 5460248 
2586 5460248 
2587 5460248 
2588 5460248 
2589 5460248 
2590 5460248 
2591 5460248 
2592 5460248 
2593 5460248 
2594 5460248 
2595 5460248 
2596 5460248 
2597 5460248 
2598 5460248 
2599 5460248 
2600 5460248 
2601 5460248 
2602 5460248 
2603 5460248 
2604 5460248 
2605 5460248 
2606 5460248 
2607 5460248 
2608 5460248 
2609 5460248 
2610 5460248 
2611 5460248 
2612 5460248 
2613 5460248 
2614 5460248 
2615 5460248 
2616 5460248 
2617 5460248 
2618 5460248 
2619 5460248 
2620 5460248 
2621 5460248 
2622 5460248 
2623 5460248 
2624 5460248 
2625 5460248 
2626 5460248 
2627 5460248 
2628 5460248 
2629 5460248 
2630 5460248 
2631 5460248 
2632 5460248 
2633 5460248 
2634 5460248 
2635 5460248 
2636 5460248 
2637 5460248 
2638 5460248 
2639 5460248 
2640 5460248 
2641 5460248 
2642 5460248 
2643 5460248 
2644 5460248 
2645 5460248 
2646 5460248 
2647 5460248 
2648 5460248 
2649 5460248 
2650 5460248 
2651 5460248 
2652 5460248 
2653 5460248 
2654 5460248 
2655 5460248 
2656 5460248 
2657 5460248 
2658 5460248 
2659 5460248 
2660 5460248 
2661 5460248 
2662 5460248 
2663 5460248 
2664 5460248 
2665 5460248 
2666 5460248 
2667 5460248 
2668 5460248 
2669 5460248 
2670 5460248 
2671 5460248 
2672 5460248 
2673 5460248 
2674 5460248 
2675 5460248 
2676 5460248 
2677 5460248 
2678 5460248 
2679 5460248 
2680 5460248 
2681 5460248 
2682 5460248 
2683 5460248 
2684 5460248 
2685 5460248 
2686 5460248 
2687 5460248 
2688 5460248 
2689 5460248 
2690 5460248 
2691 5460248 
2692 5460248 
2693 5460248 
2694 5460248 
2695 5460248 
2696 5460248 
2697 5460248 
2698 5460248 
2699 5460248 
2700 5460248 
2701 5460248 
2702 5460248 
2703 5460248 
2704 5460248 
2705 5460248 
2706 5460248 
2707 5460248 
2708 5460248 
2709 5460248 
2710 5460248 
2711 5460248 
2712 5460248 
2713 5460248 
2714 5460248 
2715 5460248 
2716 5460248 
2717 5460248 
2718 5460248 
2719 5460248 
2720 5460248 
2721 5460248 
2722 5460248 
2723 5460248 
2724 5460248 
2725 5460248 
2726 5460248 
2727 5460248 
2728 5460248 
2729 5460248 
2730 5460248 
2731 5460248 
2732 5460248 
2733 5460248 
2734 5460248 
2735 5460248 
2736 5460248 
2737 5460248 
2738 5460248 
2739 5460248 
2740 5460248 
2741 5460248 
2742 5460248 
2743 5460248 
2744 5460248 
2745 5460248 
2746 5460248 
2747 5460248 
2748 5460248 
2749 5460248 
2750 5460248 
2751 5460248 
2752 5460248 
2753 5460248 
2754 5460248 
2755 5460248 
2756 5460248 
2757 5460248 
2758 5460248 
2759 5460248 
2760 5460248 
2761 5460248 
2762 5460248 
2763 5460248 
2764 5460248 
2765 5460248 
2766 5460248 
2767 5460248 
2768 5460248 
2769 5460248 
2770 5460248 
2771 5460248 
2772 5460248 
2773 5460248 
2774 5460248 
2775 5460248 
2776 5460248 
2777 5460248 
2778 5460248 
2779 5460248 
2780 5460248 
2781 5460248 
2782 5460248 
2783 5460248 
2784 5460248 
2785 5460248 
2786 5460248 
2787 5460248 
2788 5460248 
2789 5460248 
2790 5460248 
2791 5460248 
2792 5460248 
2793 5460248 
2794 5460248 
2795 5460248 
2796 5460248 
2797 5460248 
2798 5460248 
2799 5460248 
2800 5460248 
2801 5460248 
2802 5460248 
2803 5460248 
2804 5460248 
2805 5460248 
2806 5460248 
2807 5460248 
2808 5460248 
2809 5460248 
2810 5460248 
2811 5460248 
2812 5460248 
2813 5460248 
2814 5460248 
2815 5460248 
2816 5460248 
2817 5460248 
2818 5460248 
2819 5460248 
2820 5460248 
2821 5460248 
2822 5460248 
2823 5460248 
2824 5460248 
2825 5460248 
2826 5460248 
2827 5460248 
2828 5460248 
2829 5460248 

